p tw 50 381
e 0 4
e 0 5
e 0 11
e 0 17
e 0 20
e 0 25
e 0 29
e 0 30
e 0 32
e 0 35
e 0 45
e 1 2
e 1 5
e 1 8
e 1 10
e 1 11
e 1 14
e 1 16
e 1 23
e 1 25
e 1 30
e 1 42
e 1 44
e 1 47
e 1 48
e 1 49
e 2 5
e 2 8
e 2 12
e 2 15
e 2 30
e 2 31
e 2 33
e 2 34
e 2 36
e 2 41
e 2 42
e 3 4
e 3 6
e 3 9
e 3 11
e 3 12
e 3 18
e 3 20
e 3 28
e 3 34
e 3 36
e 3 39
e 3 41
e 3 43
e 3 47
e 3 48
e 4 7
e 4 8
e 4 10
e 4 16
e 4 18
e 4 22
e 4 23
e 4 25
e 4 27
e 4 28
e 4 29
e 4 32
e 4 33
e 4 37
e 4 39
e 4 43
e 5 13
e 5 16
e 5 17
e 5 19
e 5 21
e 5 23
e 5 26
e 5 29
e 5 33
e 5 35
e 5 36
e 5 38
e 5 44
e 5 46
e 6 7
e 6 9
e 6 16
e 6 18
e 6 20
e 6 22
e 6 27
e 6 28
e 6 29
e 6 30
e 6 31
e 6 33
e 6 35
e 6 36
e 6 38
e 6 45
e 6 46
e 6 48
e 7 13
e 7 23
e 7 28
e 7 29
e 7 33
e 7 35
e 7 39
e 7 41
e 8 15
e 8 16
e 8 17
e 8 20
e 8 22
e 8 25
e 8 28
e 8 30
e 8 33
e 8 34
e 8 39
e 8 48
e 8 49
e 9 11
e 9 14
e 9 15
e 9 19
e 9 23
e 9 27
e 9 30
e 9 32
e 9 37
e 9 38
e 9 44
e 10 13
e 10 17
e 10 21
e 10 22
e 10 23
e 10 24
e 10 26
e 10 27
e 10 31
e 10 34
e 10 37
e 10 38
e 10 40
e 10 45
e 11 12
e 11 18
e 11 19
e 11 27
e 11 28
e 11 33
e 11 34
e 11 37
e 11 38
e 11 39
e 11 40
e 11 47
e 12 14
e 12 15
e 12 16
e 12 19
e 12 24
e 12 26
e 12 27
e 12 30
e 12 31
e 12 32
e 12 33
e 12 34
e 12 35
e 12 36
e 12 44
e 12 45
e 12 46
e 12 48
e 12 49
e 13 19
e 13 25
e 13 30
e 13 42
e 13 44
e 14 16
e 14 29
e 14 31
e 14 40
e 14 46
e 14 49
e 15 17
e 15 18
e 15 19
e 15 25
e 15 27
e 15 28
e 15 29
e 15 37
e 15 38
e 15 42
e 15 48
e 16 18
e 16 19
e 16 22
e 16 24
e 16 32
e 16 35
e 16 37
e 16 38
e 16 40
e 16 41
e 17 21
e 17 23
e 17 26
e 17 28
e 17 29
e 17 38
e 17 39
e 17 46
e 17 47
e 18 19
e 18 20
e 18 24
e 18 27
e 18 28
e 18 31
e 18 33
e 18 35
e 18 41
e 18 43
e 18 44
e 18 46
e 18 49
e 19 25
e 19 30
e 19 31
e 19 32
e 19 34
e 19 36
e 19 37
e 19 40
e 19 42
e 19 46
e 20 25
e 20 27
e 20 31
e 20 36
e 20 37
e 20 39
e 20 43
e 20 46
e 20 47
e 21 25
e 21 26
e 21 27
e 21 31
e 21 32
e 21 35
e 21 39
e 21 43
e 21 44
e 21 46
e 21 48
e 21 49
e 22 32
e 22 35
e 22 36
e 22 42
e 22 44
e 22 45
e 22 47
e 22 48
e 22 49
e 23 25
e 23 28
e 23 29
e 23 30
e 23 35
e 23 36
e 23 45
e 24 32
e 24 34
e 24 35
e 24 36
e 24 37
e 24 38
e 24 41
e 24 43
e 24 48
e 25 30
e 25 32
e 25 33
e 25 34
e 25 40
e 25 41
e 25 43
e 25 44
e 25 46
e 25 47
e 25 48
e 26 28
e 26 29
e 26 34
e 26 36
e 26 37
e 26 38
e 26 48
e 26 49
e 27 28
e 27 29
e 27 31
e 27 33
e 27 38
e 27 40
e 27 42
e 27 47
e 27 49
e 28 31
e 28 32
e 28 33
e 28 34
e 28 35
e 28 36
e 28 39
e 29 30
e 29 38
e 29 42
e 29 46
e 29 47
e 29 49
e 30 32
e 30 33
e 30 36
e 30 38
e 30 42
e 30 43
e 30 45
e 31 35
e 31 36
e 31 43
e 31 49
e 32 34
e 32 35
e 32 38
e 32 43
e 33 36
e 33 38
e 33 39
e 33 43
e 33 47
e 34 35
e 34 37
e 34 38
e 34 42
e 35 41
e 35 47
e 35 48
e 36 37
e 36 47
e 36 48
e 37 38
e 37 42
e 37 45
e 38 41
e 38 43
e 39 40
e 39 42
e 39 49
e 40 48
e 40 49
e 41 43
e 41 46
e 42 43
e 42 46
e 42 49
e 43 45
e 43 47
e 43 48
e 44 46
e 45 48
e 45 49
e 46 47
e 47 48
